p cnf 1152 2876
-1152 -1151 0 
-1151 411 0 
-1151 1132 0 
-1151 1150 0 
-1150 -1132 -411 1151 0 
-1150 777 0 
-1150 833 0 
-1150 1148 0 
-1149 -1148 0 
-1148 -833 -777 1150 0 
-1148 1146 1147 0 
-1147 1145 0 
-1147 1146 0 
-1147 1148 0 
-1146 -1145 0 
-1146 -1145 1147 0 
-1146 1148 0 
-1145 1143 1144 0 
-1144 1140 0 
-1144 1142 0 
-1144 1145 0 
-1143 1141 0 
-1143 1142 0 
-1143 1145 0 
-1142 -1141 -1140 0 
-1142 -1141 1143 0 
-1142 -1140 1144 0 
-1141 1137 1139 0 
-1140 1135 1138 0 
-1139 1107 0 
-1139 1136 0 
-1139 1141 0 
-1138 1103 0 
-1138 1134 0 
-1138 1140 0 
-1137 1130 0 
-1137 1133 0 
-1137 1141 0 
-1136 -1133 0 
-1136 -1107 1139 0 
-1135 1126 0 
-1135 1131 0 
-1135 1140 0 
-1134 -1131 0 
-1134 -1103 1138 0 
-1133 -1130 1137 0 
-1133 1128 1129 0 
-1132 784 0 
-1132 1077 0 
-1132 1127 0 
-1131 -1126 1135 0 
-1131 1124 1125 0 
-1130 -1120 -1106 0 
-1129 1119 0 
-1129 1121 0 
-1129 1133 0 
-1128 933 1096 1097 1122 1123 0 
-1128 1133 0 
-1127 -1111 0 
-1127 -1077 -784 1132 0 
-1126 -1115 -1102 0 
-1125 1114 0 
-1125 1116 0 
-1125 1131 0 
-1124 926 1085 1086 1117 1118 0 
-1124 1131 0 
-1123 1007 0 
-1123 1053 0 
-1123 1054 0 
-1123 1104 0 
-1123 1105 0 
-1123 1128 0 
-1122 1027 0 
-1122 1053 0 
-1122 1054 0 
-1122 1104 0 
-1122 1128 0 
-1121 -1119 1129 0 
-1121 1053 0 
-1121 1054 0 
-1121 1091 0 
-1121 1104 0 
-1121 1105 0 
-1120 -1107 0 
-1119 991 1112 1113 0 
-1118 990 0 
-1118 1041 0 
-1118 1042 0 
-1118 1100 0 
-1118 1101 0 
-1118 1124 0 
-1117 1019 0 
-1117 1041 0 
-1117 1042 0 
-1117 1100 0 
-1117 1124 0 
-1116 -1114 1125 0 
-1116 1041 0 
-1116 1042 0 
-1116 1080 0 
-1116 1100 0 
-1116 1101 0 
-1115 -1103 0 
-1114 973 1108 1109 0 
-1113 961 0 
-1113 1087 0 
-1113 1088 0 
-1113 1119 0 
-1112 992 0 
-1112 1087 0 
-1112 1119 0 
-1111 207 0 
-1111 1098 0 
-1110 525 1099 0 
-1109 953 0 
-1109 1075 0 
-1109 1076 0 
-1109 1114 0 
-1108 974 0 
-1108 1075 0 
-1108 1114 0 
-1107 929 1093 1094 1095 0 
-1106 -1092 0 
-1105 -1104 -1091 -1054 -1053 1121 0 
-1105 -1104 -1054 -1053 -1007 1123 0 
-1105 -1090 -1071 0 
-1104 -1089 -1069 0 
-1104 -1054 -1053 -1027 1122 0 
-1103 922 1082 1083 1084 0 
-1102 -1081 0 
-1101 -1100 -1080 -1042 -1041 1116 0 
-1101 -1100 -1042 -1041 -990 1118 0 
-1101 -1079 -1064 0 
-1100 -1078 -1062 0 
-1100 -1042 -1041 -1019 1117 0 
-1099 123 0 
-1099 1074 0 
-1099 1110 0 
-1098 -1073 0 
-1098 -207 1111 0 
-1097 1026 0 
-1097 1053 0 
-1097 1054 0 
-1097 1128 0 
-1096 934 0 
-1096 1053 0 
-1096 1128 0 
-1095 932 0 
-1095 1049 0 
-1095 1050 0 
-1095 1051 0 
-1095 1107 0 
-1094 931 0 
-1094 1049 0 
-1094 1050 0 
-1094 1107 0 
-1093 930 0 
-1093 1049 0 
-1093 1107 0 
-1092 1049 0 
-1092 1050 0 
-1092 1051 0 
-1092 1052 0 
-1091 -1072 -1056 0 
-1090 -1070 -872 0 
-1089 -1068 -873 0 
-1088 -1087 -961 1113 0 
-1088 -1067 -1047 0 
-1087 -1066 -1046 0 
-1087 -992 1112 0 
-1086 1018 0 
-1086 1041 0 
-1086 1042 0 
-1086 1124 0 
-1085 927 0 
-1085 1041 0 
-1085 1124 0 
-1084 925 0 
-1084 1037 0 
-1084 1038 0 
-1084 1039 0 
-1084 1103 0 
-1083 924 0 
-1083 1037 0 
-1083 1038 0 
-1083 1103 0 
-1082 923 0 
-1082 1037 0 
-1082 1103 0 
-1081 1037 0 
-1081 1038 0 
-1081 1039 0 
-1081 1040 0 
-1080 -1065 -1044 0 
-1079 -1063 -870 0 
-1078 -1061 -871 0 
-1077 -1036 0 
-1076 -1075 -953 1109 0 
-1076 -1060 -1034 0 
-1075 -1059 -1033 0 
-1075 -974 1108 0 
-1074 -1058 -1031 0 
-1074 -123 1099 0 
-1073 -1057 -1029 0 
-1072 -1055 -529 0 
-1071 -1006 -970 0 
-1070 -970 0 
-1069 -1005 -971 0 
-1068 -971 0 
-1067 -1048 -462 0 
-1066 -1045 -528 0 
-1065 -1043 -529 0 
-1064 -989 -968 0 
-1063 -968 0 
-1062 -988 -969 0 
-1061 -969 0 
-1060 -1035 -462 0 
-1059 -1032 -528 0 
-1058 -1030 -914 0 
-1057 -1028 -913 0 
-1056 -940 -704 0 
-1055 -940 0 
-1054 -1053 -1026 1097 0 
-1054 -1025 -1004 0 
-1053 -1024 -1002 0 
-1053 -934 1096 0 
-1052 -1051 -1050 -1049 1092 0 
-1052 -1023 -1000 0 
-1051 -1050 -1049 -932 1095 0 
-1051 -1022 -998 0 
-1050 -1049 -931 1094 0 
-1050 -1021 -996 0 
-1049 -1020 -994 0 
-1049 -930 1093 0 
-1048 -938 0 
-1047 -938 -623 0 
-1046 -939 -703 0 
-1045 -939 0 
-1044 -937 -700 0 
-1043 -937 0 
-1042 -1041 -1018 1086 0 
-1042 -1017 -987 0 
-1041 -1016 -985 0 
-1041 -927 1085 0 
-1040 -1039 -1038 -1037 1081 0 
-1040 -1015 -983 0 
-1039 -1038 -1037 -925 1084 0 
-1039 -1014 -981 0 
-1038 -1037 -924 1083 0 
-1038 -1013 -979 0 
-1037 -1012 -977 0 
-1037 -923 1082 0 
-1036 207 0 
-1036 1011 0 
-1035 -935 0 
-1034 -935 -618 0 
-1033 -936 -692 0 
-1032 -936 0 
-1031 -1009 -952 0 
-1030 -1009 0 
-1029 -1008 -951 0 
-1028 -1008 0 
-1027 872 0 
-1027 970 0 
-1026 873 0 
-1026 971 0 
-1025 -1003 -827 0 
-1024 -1001 -828 0 
-1023 -999 -829 0 
-1022 -997 -830 0 
-1021 -995 -831 0 
-1020 -993 -832 0 
-1019 870 0 
-1019 968 0 
-1018 871 0 
-1018 969 0 
-1017 -986 -821 0 
-1016 -984 -822 0 
-1015 -982 -815 0 
-1014 -980 -816 0 
-1013 -978 -817 0 
-1012 -976 -818 0 
-1011 -975 0 
-1011 -207 1036 0 
-1010 445 972 0 
-1009 -950 -949 0 
-1008 -948 -947 0 
-1007 529 0 
-1007 940 0 
-1006 -872 0 
-1005 -873 0 
-1004 -967 -880 0 
-1003 -880 0 
-1002 -966 -881 0 
-1001 -881 0 
-1000 -965 -882 0 
-999 -882 0 
-998 -964 -883 0 
-997 -883 0 
-996 -963 -884 0 
-995 -884 0 
-994 -962 -885 0 
-993 -885 0 
-992 462 0 
-992 938 0 
-991 528 0 
-991 939 0 
-991 1119 0 
-990 529 0 
-990 937 0 
-989 -870 0 
-988 -871 0 
-987 -960 -874 0 
-986 -874 0 
-985 -959 -875 0 
-984 -875 0 
-983 -958 -876 0 
-982 -876 0 
-981 -957 -877 0 
-980 -877 0 
-979 -956 -878 0 
-978 -878 0 
-977 -955 -879 0 
-976 -879 0 
-975 -954 -921 0 
-974 462 0 
-974 935 0 
-973 528 0 
-973 936 0 
-973 1114 0 
-972 171 0 
-972 946 0 
-972 1010 0 
-971 -873 1026 0 
-971 8 0 
-971 945 0 
-970 -872 1027 0 
-970 8 0 
-970 944 0 
-969 -871 1018 0 
-969 8 0 
-969 943 0 
-968 -870 1019 0 
-968 8 0 
-968 942 0 
-967 -827 0 
-966 -828 0 
-965 -829 0 
-964 -830 0 
-963 -831 0 
-962 -832 0 
-961 461 0 
-961 928 0 
-960 -821 0 
-959 -822 0 
-958 -815 0 
-957 -816 0 
-956 -817 0 
-955 -818 0 
-954 -941 -791 0 
-953 461 0 
-953 920 0 
-952 -914 0 
-951 -913 0 
-950 -918 0 
-950 -898 0 
-949 -917 0 
-949 -897 0 
-948 -916 0 
-948 -896 0 
-947 -915 0 
-947 -895 0 
-946 -919 -899 0 
-946 -171 972 0 
-945 -8 971 0 
-945 857 912 0 
-944 -8 970 0 
-944 856 911 0 
-943 -8 969 0 
-943 848 910 0 
-942 -8 968 0 
-942 847 909 0 
-941 -890 0 
-940 -529 1007 0 
-940 842 908 0 
-939 -528 991 0 
-939 841 907 0 
-938 -462 992 0 
-938 840 906 0 
-937 -529 990 0 
-937 838 905 0 
-936 -528 973 0 
-936 837 904 0 
-935 -462 974 0 
-935 836 903 0 
-934 827 0 
-934 880 0 
-933 828 0 
-933 881 0 
-933 1128 0 
-932 829 0 
-932 882 0 
-931 830 0 
-931 883 0 
-930 831 0 
-930 884 0 
-929 832 0 
-929 885 0 
-929 1107 0 
-928 -461 961 0 
-928 834 902 0 
-927 821 0 
-927 874 0 
-926 822 0 
-926 875 0 
-926 1124 0 
-925 815 0 
-925 876 0 
-924 816 0 
-924 877 0 
-923 817 0 
-923 878 0 
-922 818 0 
-922 879 0 
-922 1103 0 
-921 -890 -845 0 
-920 -461 953 0 
-920 824 901 0 
-919 -900 -412 0 
-918 524 0 
-918 770 0 
-918 894 0 
-917 688 0 
-917 689 0 
-917 893 0 
-916 683 0 
-916 823 0 
-916 892 0 
-915 767 0 
-915 768 0 
-915 891 0 
-914 -889 -888 0 
-913 -887 -886 0 
-912 200 0 
-912 855 0 
-912 945 0 
-911 199 0 
-911 855 0 
-911 944 0 
-910 200 0 
-910 846 0 
-910 943 0 
-909 199 0 
-909 846 0 
-909 942 0 
-908 198 0 
-908 839 0 
-908 940 0 
-907 197 0 
-907 839 0 
-907 939 0 
-906 196 0 
-906 839 0 
-906 938 0 
-905 198 0 
-905 835 0 
-905 937 0 
-904 197 0 
-904 835 0 
-904 936 0 
-903 196 0 
-903 835 0 
-903 935 0 
-902 195 0 
-902 839 0 
-902 928 0 
-901 195 0 
-901 835 0 
-901 920 0 
-900 -868 0 
-899 -868 -617 0 
-898 688 0 
-898 770 0 
-898 771 0 
-897 524 0 
-897 689 0 
-897 771 0 
-896 767 0 
-896 769 0 
-896 823 0 
-895 683 0 
-895 768 0 
-895 769 0 
-894 -771 0 
-894 -770 -524 918 0 
-893 -771 0 
-893 -689 -688 917 0 
-892 -823 -683 916 0 
-892 -769 0 
-891 -769 0 
-891 -768 -767 915 0 
-890 -844 -843 0 
-889 -867 -789 0 
-888 -866 -790 0 
-887 -865 -785 0 
-886 -864 -786 0 
-885 -832 929 0 
-885 556 0 
-885 863 0 
-884 -831 930 0 
-884 556 0 
-884 862 0 
-883 -830 931 0 
-883 556 0 
-883 861 0 
-882 -829 932 0 
-882 556 0 
-882 860 0 
-881 -828 933 0 
-881 8 0 
-881 859 0 
-880 -827 934 0 
-880 8 0 
-880 858 0 
-879 -818 922 0 
-879 556 0 
-879 854 0 
-878 -817 923 0 
-878 556 0 
-878 853 0 
-877 -816 924 0 
-877 556 0 
-877 852 0 
-876 -815 925 0 
-876 556 0 
-876 851 0 
-875 -822 926 0 
-875 8 0 
-875 850 0 
-874 -821 927 0 
-874 8 0 
-874 849 0 
-873 -826 0 
-872 -825 0 
-871 -820 0 
-870 -819 0 
-869 -809 0 
-868 -812 -788 0 
-867 -790 0 
-866 -789 0 
-865 -786 0 
-864 -785 0 
-863 -556 885 0 
-863 196 0 
-863 609 0 
-862 -556 884 0 
-862 195 0 
-862 609 0 
-861 -556 883 0 
-861 194 0 
-861 609 0 
-860 -556 882 0 
-860 193 0 
-860 609 0 
-859 -8 881 0 
-859 192 0 
-859 609 0 
-858 -8 880 0 
-858 191 0 
-858 609 0 
-857 190 0 
-857 609 0 
-857 945 0 
-856 189 0 
-856 609 0 
-856 944 0 
-855 -609 0 
-855 -200 912 0 
-855 -199 911 0 
-854 -556 879 0 
-854 196 0 
-854 609 0 
-853 -556 878 0 
-853 195 0 
-853 609 0 
-852 -556 877 0 
-852 194 0 
-852 609 0 
-851 -556 876 0 
-851 193 0 
-851 609 0 
-850 -8 875 0 
-850 192 0 
-850 609 0 
-849 -8 874 0 
-849 191 0 
-849 609 0 
-848 190 0 
-848 609 0 
-848 943 0 
-847 189 0 
-847 609 0 
-847 942 0 
-846 -609 0 
-846 -200 910 0 
-846 -199 909 0 
-845 -791 0 
-844 -811 0 
-844 -783 0 
-843 -810 0 
-843 -782 0 
-842 188 0 
-842 609 0 
-842 940 0 
-841 187 0 
-841 609 0 
-841 939 0 
-840 177 0 
-840 609 0 
-840 938 0 
-839 -609 0 
-839 -198 908 0 
-839 -197 907 0 
-839 -196 906 0 
-839 -195 902 0 
-838 188 0 
-838 609 0 
-838 937 0 
-837 187 0 
-837 609 0 
-837 936 0 
-836 177 0 
-836 609 0 
-836 935 0 
-835 -609 0 
-835 -198 905 0 
-835 -197 904 0 
-835 -196 903 0 
-835 -195 901 0 
-834 176 0 
-834 609 0 
-834 928 0 
-833 -776 0 
-832 -808 0 
-831 -807 0 
-830 -806 0 
-829 -805 0 
-828 -804 0 
-827 -803 0 
-826 8 0 
-826 802 0 
-825 8 0 
-825 801 0 
-824 176 0 
-824 609 0 
-824 920 0 
-823 -769 -767 896 0 
-823 -768 0 
-822 -800 0 
-821 -799 0 
-820 8 0 
-820 798 0 
-819 8 0 
-819 797 0 
-818 -796 0 
-817 -795 0 
-816 -794 0 
-815 -793 0 
-814 -777 0 
-813 -784 0 
-812 -787 -646 0 
-811 635 0 
-811 724 0 
-811 781 0 
-810 636 0 
-810 723 0 
-810 780 0 
-809 283 0 
-809 778 0 
-809 779 0 
-808 556 0 
-808 698 0 
-807 556 0 
-807 697 0 
-806 556 0 
-806 696 0 
-805 556 0 
-805 695 0 
-804 8 0 
-804 775 0 
-803 8 0 
-803 774 0 
-802 -8 826 0 
-802 694 773 0 
-801 -8 825 0 
-801 693 772 0 
-800 8 0 
-800 766 0 
-799 8 0 
-799 765 0 
-798 -8 820 0 
-798 682 764 0 
-797 -8 819 0 
-797 681 763 0 
-796 556 0 
-796 680 0 
-795 556 0 
-795 679 0 
-794 556 0 
-794 678 0 
-793 556 0 
-793 677 0 
-792 -762 -761 0 
-791 -760 -759 0 
-790 -756 -755 0 
-789 -758 -757 0 
-788 -736 -735 0 
-787 -735 0 
-786 -752 -751 0 
-785 -754 -753 0 
-784 -750 -726 0 
-783 637 0 
-783 723 0 
-783 724 0 
-782 635 0 
-782 636 0 
-782 637 0 
-781 -724 -635 811 0 
-781 -637 0 
-780 -723 -636 810 0 
-780 -637 0 
-779 -778 -283 809 0 
-779 748 0 
-779 749 0 
-778 746 0 
-778 747 0 
-777 -745 -706 0 
-776 10 0 
-776 744 0 
-775 -8 804 0 
-775 420 0 
-775 701 0 
-774 -8 803 0 
-774 419 0 
-774 701 0 
-773 418 0 
-773 701 0 
-773 802 0 
-772 417 0 
-772 701 0 
-772 801 0 
-771 -770 -688 898 0 
-771 -743 -691 0 
-771 -689 -524 897 0 
-770 -689 0 
-769 -768 -683 895 0 
-769 -742 -686 0 
-768 -741 -685 0 
-767 -683 0 
-766 -8 800 0 
-766 420 0 
-766 699 0 
-765 -8 799 0 
-765 419 0 
-765 699 0 
-764 418 0 
-764 699 0 
-764 798 0 
-763 417 0 
-763 699 0 
-763 797 0 
-762 658 740 0 
-761 659 739 0 
-760 -738 -648 0 
-759 -737 -649 0 
-758 -734 -533 0 
-757 -733 -532 0 
-756 -732 -531 0 
-755 -731 -530 0 
-754 -730 -533 0 
-753 -729 -532 0 
-752 -728 -531 0 
-751 -727 -530 0 
-750 -725 -410 0 
-749 -748 779 0 
-749 718 0 
-749 719 0 
-749 720 0 
-749 721 0 
-749 722 0 
-748 499 0 
-748 717 0 
-747 -746 778 0 
-747 712 0 
-747 713 0 
-747 714 0 
-747 715 0 
-747 716 0 
-746 707 0 
-746 708 0 
-746 709 0 
-746 710 0 
-746 711 0 
-745 -705 -505 0 
-744 -702 0 
-744 -10 776 0 
-743 -690 -462 0 
-742 -687 -548 0 
-741 -684 -462 0 
-740 559 0 
-740 658 0 
-740 762 0 
-739 560 0 
-739 659 0 
-739 761 0 
-738 -649 0 
-737 -648 0 
-736 -646 0 
-735 -676 -645 0 
-734 -532 0 
-733 -533 0 
-732 -530 0 
-731 -531 0 
-730 -532 0 
-729 -533 0 
-728 -530 0 
-727 -531 0 
-726 -650 -440 0 
-725 -650 0 
-724 -723 -637 783 0 
-724 -636 0 
-723 -635 0 
-722 -721 -720 -719 -718 749 0 
-722 -670 0 
-721 -671 0 
-720 -672 0 
-719 -673 0 
-718 -674 0 
-717 -675 0 
-717 -499 748 0 
-716 -715 -714 -713 -712 747 0 
-716 -660 0 
-715 -661 0 
-714 -662 0 
-713 -663 0 
-712 -664 0 
-711 -710 -709 -708 -707 746 0 
-711 -665 0 
-710 -666 0 
-709 -667 0 
-708 -668 0 
-707 -669 0 
-706 -647 -564 0 
-705 -647 0 
-704 -529 0 
-703 -528 0 
-702 -657 -622 0 
-701 -522 0 
-701 -420 775 0 
-701 -419 774 0 
-701 -418 773 0 
-701 -417 772 0 
-700 -529 0 
-699 -522 0 
-699 -420 766 0 
-699 -419 765 0 
-699 -418 764 0 
-699 -417 763 0 
-698 -556 808 0 
-698 429 0 
-698 621 0 
-697 -556 807 0 
-697 428 0 
-697 621 0 
-696 -556 806 0 
-696 427 0 
-696 621 0 
-695 -556 805 0 
-695 421 0 
-695 621 0 
-694 418 0 
-694 522 0 
-694 802 0 
-693 417 0 
-693 522 0 
-693 801 0 
-692 -528 0 
-691 -616 -528 0 
-690 -528 0 
-689 -655 -654 0 
-688 -524 0 
-687 -529 0 
-686 -613 -529 0 
-685 -612 -528 0 
-684 -528 0 
-683 -653 -652 0 
-682 418 0 
-682 522 0 
-682 798 0 
-681 417 0 
-681 522 0 
-681 797 0 
-680 -556 796 0 
-680 429 0 
-680 619 0 
-679 -556 795 0 
-679 428 0 
-679 619 0 
-678 -556 794 0 
-678 427 0 
-678 619 0 
-677 -556 793 0 
-677 421 0 
-677 619 0 
-676 -644 -413 0 
-675 -643 -602 0 
-674 -642 -600 0 
-673 -641 -598 0 
-672 -640 -596 0 
-671 -639 -594 0 
-670 -638 -592 0 
-669 -634 -583 0 
-668 -633 -581 0 
-667 -632 -579 0 
-666 -631 -577 0 
-665 -630 -575 0 
-664 -629 -573 0 
-663 -628 -571 0 
-662 -627 -569 0 
-661 -626 -567 0 
-660 -625 -565 0 
-659 -560 0 
-659 -560 739 0 
-659 761 0 
-658 -559 0 
-658 -559 740 0 
-658 762 0 
-657 -624 -504 0 
-656 457 620 0 
-655 -615 -461 0 
-654 -614 -460 0 
-653 -611 -461 0 
-652 -610 -460 0 
-651 446 608 0 
-650 -591 -590 0 
-649 -605 -604 0 
-648 -607 -606 0 
-647 -562 -561 0 
-646 -524 0 
-645 -550 -549 0 
-644 -549 0 
-643 -603 -200 0 
-642 -601 -199 0 
-641 -599 -198 0 
-640 -597 -197 0 
-639 -595 -196 0 
-638 -593 -195 0 
-637 -636 -635 782 0 
-637 -589 -588 0 
-636 -587 -586 0 
-635 -585 -541 0 
-634 -584 -194 0 
-633 -582 -193 0 
-632 -580 -192 0 
-631 -578 -191 0 
-630 -576 -190 0 
-629 -574 -189 0 
-628 -572 -188 0 
-627 -570 -187 0 
-626 -568 -177 0 
-625 -566 -176 0 
-624 -551 0 
-623 -462 0 
-622 -563 -551 0 
-621 -522 0 
-621 -429 698 0 
-621 -428 697 0 
-621 -427 696 0 
-621 -421 695 0 
-620 123 0 
-620 524 0 
-620 656 0 
-619 -522 0 
-619 -429 680 0 
-619 -428 679 0 
-619 -427 678 0 
-619 -421 677 0 
-618 -462 0 
-617 -412 0 
-616 -462 0 
-615 -460 0 
-614 -461 0 
-613 -548 0 
-612 -462 0 
-611 -460 0 
-610 -461 0 
-609 -522 0 
-609 -196 854 0 
-609 -196 863 0 
-609 -195 853 0 
-609 -195 862 0 
-609 -194 852 0 
-609 -194 861 0 
-609 -193 851 0 
-609 -193 860 0 
-609 -192 850 0 
-609 -192 859 0 
-609 -191 849 0 
-609 -191 858 0 
-609 -190 848 0 
-609 -190 857 0 
-609 -189 847 0 
-609 -189 856 0 
-609 -188 838 0 
-609 -188 842 0 
-609 -187 837 0 
-609 -187 841 0 
-609 -177 836 0 
-609 -177 840 0 
-609 -176 824 0 
-609 -176 834 0 
-608 171 0 
-608 524 0 
-608 651 0 
-607 -555 -426 0 
-606 -554 -425 0 
-605 -553 -424 0 
-604 -552 -423 0 
-603 -521 0 
-602 -521 -405 0 
-601 -520 0 
-600 -520 -404 0 
-599 -519 0 
-598 -519 -403 0 
-597 -518 0 
-596 -518 -402 0 
-595 -517 0 
-594 -517 -401 0 
-593 -516 0 
-592 -516 -400 0 
-591 -547 0 
-591 -503 0 
-590 -546 0 
-590 -502 0 
-589 -545 -422 0 
-588 -544 -430 0 
-587 -543 -429 0 
-586 -542 -428 0 
-585 -540 -431 0 
-584 -515 0 
-583 -515 -364 0 
-582 -514 0 
-581 -514 -363 0 
-580 -513 0 
-579 -513 -362 0 
-578 -512 0 
-577 -512 -361 0 
-576 -511 0 
-575 -511 -360 0 
-574 -510 0 
-573 -510 -359 0 
-572 -509 0 
-571 -509 -358 0 
-570 -508 0 
-569 -508 -357 0 
-568 -507 0 
-567 -507 -356 0 
-566 -506 0 
-565 -506 -355 0 
-564 -505 0 
-563 -504 0 
-562 -539 0 
-562 -498 0 
-561 -538 0 
-561 -497 0 
-560 536 537 0 
-559 534 535 0 
-558 459 527 0 
-557 458 526 0 
-556 30 0 
-556 466 0 
-556 523 0 
-555 -425 0 
-554 -426 0 
-553 -423 0 
-552 -424 0 
-551 -496 -495 0 
-550 -413 0 
-549 -456 0 
-548 -417 0 
-547 389 0 
-547 439 0 
-547 501 0 
-546 390 0 
-546 438 0 
-546 500 0 
-545 -430 0 
-544 -422 0 
-543 -428 0 
-542 -429 0 
-541 -478 -427 0 
-540 -427 0 
-539 352 0 
-539 433 0 
-539 494 0 
-538 353 0 
-538 432 0 
-538 493 0 
-537 426 0 
-537 464 0 
-537 560 0 
-536 202 0 
-536 464 0 
-536 560 0 
-535 425 0 
-535 463 0 
-535 559 0 
-534 201 0 
-534 463 0 
-534 559 0 
-533 -421 0 
-532 -420 0 
-531 -419 0 
-530 -418 0 
-529 -416 0 
-528 -415 0 
-527 172 0 
-527 415 0 
-527 558 0 
-526 123 0 
-526 416 0 
-526 557 0 
-525 172 0 
-525 412 0 
-525 1110 0 
-524 -456 -157 0 
-524 -171 608 0 
-524 -123 620 0 
-523 -466 -30 556 0 
-523 -465 0 
-522 -418 682 0 
-522 -418 694 0 
-522 -417 681 0 
-522 -417 693 0 
-522 30 0 
-522 465 0 
-522 466 0 
-521 398 485 0 
-520 397 484 0 
-519 396 483 0 
-518 395 482 0 
-517 394 481 0 
-516 393 480 0 
-515 392 479 0 
-514 388 477 0 
-513 387 476 0 
-512 386 475 0 
-511 385 474 0 
-510 384 473 0 
-509 383 472 0 
-508 382 471 0 
-507 381 470 0 
-506 380 469 0 
-505 -489 -488 0 
-504 -487 -442 0 
-503 391 0 
-503 438 0 
-503 439 0 
-502 389 0 
-502 390 0 
-502 391 0 
-501 -439 -389 547 0 
-501 -391 0 
-500 -438 -390 546 0 
-500 -391 0 
-499 399 486 0 
-498 354 0 
-498 432 0 
-498 433 0 
-497 352 0 
-497 353 0 
-497 354 0 
-496 -468 0 
-496 -437 0 
-495 -467 0 
-495 -436 0 
-494 -433 -352 539 0 
-494 -354 0 
-493 -432 -353 538 0 
-493 -354 0 
-492 -455 0 
-491 -454 0 
-490 171 447 0 
-489 -444 -408 0 
-488 -443 -409 0 
-487 -441 -277 0 
-486 23 0 
-486 425 0 
-486 499 0 
-485 23 0 
-485 424 0 
-485 521 0 
-484 23 0 
-484 423 0 
-484 520 0 
-483 23 0 
-483 422 0 
-483 519 0 
-482 23 0 
-482 430 0 
-482 518 0 
-481 23 0 
-481 429 0 
-481 517 0 
-480 23 0 
-480 428 0 
-480 516 0 
-479 23 0 
-479 427 0 
-479 515 0 
-478 -431 0 
-477 12 0 
-477 421 0 
-477 514 0 
-476 12 0 
-476 420 0 
-476 513 0 
-475 12 0 
-475 419 0 
-475 512 0 
-474 12 0 
-474 418 0 
-474 511 0 
-473 12 0 
-473 417 0 
-473 510 0 
-472 12 0 
-472 416 0 
-472 509 0 
-471 12 0 
-471 415 0 
-471 508 0 
-470 12 0 
-470 414 0 
-470 507 0 
-469 12 0 
-469 413 0 
-469 506 0 
-468 245 0 
-468 351 0 
-468 435 0 
-467 246 0 
-467 350 0 
-467 434 0 
-466 -465 -30 522 0 
-466 -423 0 
-465 158 0 
-465 422 0 
-464 -426 -202 0 
-464 -426 537 0 
-464 -202 536 0 
-463 -425 -201 0 
-463 -425 535 0 
-463 -201 534 0 
-462 -414 0 
-461 -413 0 
-460 -412 0 
-459 123 0 
-459 417 0 
-459 558 0 
-458 172 0 
-458 414 0 
-458 557 0 
-457 172 0 
-457 413 0 
-457 656 0 
-456 -414 0 
-455 116 0 
-455 121 0 
-455 160 0 
-455 411 0 
-454 28 0 
-454 116 0 
-454 121 0 
-454 411 0 
-453 -416 0 
-452 -417 0 
-451 -418 0 
-450 -422 0 
-449 -424 0 
-448 -423 0 
-447 122 0 
-447 413 0 
-447 490 0 
-446 122 0 
-446 414 0 
-446 651 0 
-445 122 0 
-445 412 0 
-445 1010 0 
-444 -409 0 
-443 -408 0 
-442 -407 -406 0 
-441 -406 0 
-440 -410 0 
-439 -438 -391 503 0 
-439 -390 0 
-438 -389 0 
-437 247 0 
-437 350 0 
-437 351 0 
-436 245 0 
-436 246 0 
-436 247 0 
-435 -351 -245 468 0 
-435 -247 0 
-434 -350 -246 467 0 
-434 -247 0 
-433 -432 -354 498 0 
-433 -353 0 
-432 -352 0 
-431 256 365 366 367 0 
-430 -23 482 0 
-430 260 377 378 379 0 
-429 -23 481 0 
-429 259 374 375 376 0 
-428 -23 480 0 
-428 258 371 372 373 0 
-427 -23 479 0 
-427 257 368 369 370 0 
-426 244 347 348 349 0 
-425 -23 486 0 
-425 243 344 345 346 0 
-424 -23 485 0 
-424 242 341 342 343 0 
-423 -23 484 0 
-423 241 338 339 340 0 
-422 -158 465 0 
-422 -23 483 0 
-422 240 335 336 337 0 
-421 -12 477 0 
-421 237 332 333 334 0 
-420 -12 476 0 
-420 236 329 330 331 0 
-419 -12 475 0 
-419 235 326 327 328 0 
-418 -12 474 0 
-418 234 323 324 325 0 
-417 -123 459 0 
-417 -12 473 0 
-417 233 320 321 322 0 
-416 -123 526 0 
-416 -12 472 0 
-416 229 317 318 319 0 
-415 -172 527 0 
-415 -12 471 0 
-415 228 314 315 316 0 
-414 -172 458 0 
-414 -122 446 0 
-414 -12 470 0 
-414 227 311 312 313 0 
-413 -172 457 0 
-413 -122 447 0 
-413 -12 469 0 
-413 226 308 309 310 0 
-412 -172 525 0 
-412 -122 445 0 
-412 225 305 306 307 0 
-411 -160 -121 -116 455 0 
-411 -121 -116 -28 454 0 
-411 303 0 
-411 304 0 
-410 -301 -300 0 
-409 -297 -296 0 
-408 -299 -298 0 
-407 -277 0 
-406 -295 -294 0 
-405 -200 0 
-404 -199 0 
-403 -198 0 
-402 -197 0 
-401 -196 0 
-400 -195 0 
-399 22 0 
-399 270 0 
-399 499 0 
-398 27 0 
-398 270 0 
-398 521 0 
-397 26 0 
-397 270 0 
-397 520 0 
-396 21 0 
-396 270 0 
-396 519 0 
-395 25 0 
-395 269 0 
-395 518 0 
-394 20 0 
-394 269 0 
-394 517 0 
-393 24 0 
-393 269 0 
-393 516 0 
-392 19 0 
-392 269 0 
-392 515 0 
-391 -390 -389 502 0 
-391 -293 -292 0 
-390 -291 -290 0 
-389 -289 -264 0 
-388 18 0 
-388 262 0 
-388 514 0 
-387 6 0 
-387 262 0 
-387 513 0 
-386 17 0 
-386 262 0 
-386 512 0 
-385 16 0 
-385 262 0 
-385 511 0 
-384 15 0 
-384 262 0 
-384 510 0 
-383 5 0 
-383 261 0 
-383 509 0 
-382 14 0 
-382 261 0 
-382 508 0 
-381 4 0 
-381 261 0 
-381 507 0 
-380 13 0 
-380 261 0 
-380 506 0 
-379 101 0 
-379 144 0 
-379 254 0 
-379 430 0 
-378 81 0 
-378 143 0 
-378 255 0 
-378 430 0 
-377 111 0 
-377 254 0 
-377 255 0 
-377 430 0 
-376 102 0 
-376 144 0 
-376 254 0 
-376 429 0 
-375 82 0 
-375 143 0 
-375 255 0 
-375 429 0 
-374 112 0 
-374 254 0 
-374 255 0 
-374 429 0 
-373 103 0 
-373 144 0 
-373 254 0 
-373 428 0 
-372 83 0 
-372 143 0 
-372 255 0 
-372 428 0 
-371 113 0 
-371 254 0 
-371 255 0 
-371 428 0 
-370 95 0 
-370 144 0 
-370 254 0 
-370 427 0 
-369 75 0 
-369 143 0 
-369 255 0 
-369 427 0 
-368 105 0 
-368 254 0 
-368 255 0 
-368 427 0 
-367 104 0 
-367 144 0 
-367 254 0 
-367 431 0 
-366 84 0 
-366 143 0 
-366 255 0 
-366 431 0 
-365 114 0 
-365 254 0 
-365 255 0 
-365 431 0 
-364 -194 0 
-363 -193 0 
-362 -192 0 
-361 -191 0 
-360 -190 0 
-359 -189 0 
-358 -188 0 
-357 -187 0 
-356 -177 0 
-355 -176 0 
-354 -353 -352 497 0 
-354 -288 -287 0 
-353 -286 -285 0 
-352 -284 -249 0 
-351 -350 -247 437 0 
-351 -246 0 
-350 -245 0 
-349 144 0 
-349 238 0 
-349 426 0 
-348 143 0 
-348 239 0 
-348 426 0 
-347 238 0 
-347 239 0 
-347 426 0 
-346 97 0 
-346 144 0 
-346 238 0 
-346 425 0 
-345 77 0 
-345 143 0 
-345 239 0 
-345 425 0 
-344 107 0 
-344 238 0 
-344 239 0 
-344 425 0 
-343 98 0 
-343 144 0 
-343 238 0 
-343 424 0 
-342 78 0 
-342 143 0 
-342 239 0 
-342 424 0 
-341 108 0 
-341 238 0 
-341 239 0 
-341 424 0 
-340 99 0 
-340 144 0 
-340 238 0 
-340 423 0 
-339 79 0 
-339 143 0 
-339 239 0 
-339 423 0 
-338 109 0 
-338 238 0 
-338 239 0 
-338 423 0 
-337 100 0 
-337 144 0 
-337 238 0 
-337 422 0 
-336 80 0 
-336 143 0 
-336 239 0 
-336 422 0 
-335 110 0 
-335 238 0 
-335 239 0 
-335 422 0 
-334 44 0 
-334 120 0 
-334 231 0 
-334 421 0 
-333 33 0 
-333 117 0 
-333 232 0 
-333 421 0 
-332 65 0 
-332 231 0 
-332 232 0 
-332 421 0 
-331 45 0 
-331 120 0 
-331 231 0 
-331 420 0 
-330 34 0 
-330 117 0 
-330 232 0 
-330 420 0 
-329 66 0 
-329 231 0 
-329 232 0 
-329 420 0 
-328 120 0 
-328 231 0 
-328 419 0 
-327 35 0 
-327 117 0 
-327 232 0 
-327 419 0 
-326 67 0 
-326 231 0 
-326 232 0 
-326 419 0 
-325 46 0 
-325 120 0 
-325 231 0 
-325 418 0 
-324 36 0 
-324 117 0 
-324 232 0 
-324 418 0 
-323 68 0 
-323 231 0 
-323 232 0 
-323 418 0 
-322 47 0 
-322 120 0 
-322 231 0 
-322 417 0 
-321 37 0 
-321 117 0 
-321 232 0 
-321 417 0 
-320 69 0 
-320 231 0 
-320 232 0 
-320 417 0 
-319 48 0 
-319 120 0 
-319 223 0 
-319 416 0 
-318 38 0 
-318 117 0 
-318 224 0 
-318 416 0 
-317 70 0 
-317 223 0 
-317 224 0 
-317 416 0 
-316 49 0 
-316 120 0 
-316 223 0 
-316 415 0 
-315 39 0 
-315 117 0 
-315 224 0 
-315 415 0 
-314 71 0 
-314 223 0 
-314 224 0 
-314 415 0 
-313 50 0 
-313 120 0 
-313 223 0 
-313 414 0 
-312 40 0 
-312 117 0 
-312 224 0 
-312 414 0 
-311 72 0 
-311 223 0 
-311 224 0 
-311 414 0 
-310 42 0 
-310 120 0 
-310 223 0 
-310 413 0 
-309 31 0 
-309 117 0 
-309 224 0 
-309 413 0 
-308 63 0 
-308 223 0 
-308 224 0 
-308 413 0 
-307 51 0 
-307 120 0 
-307 223 0 
-307 412 0 
-306 41 0 
-306 117 0 
-306 224 0 
-306 412 0 
-305 73 0 
-305 223 0 
-305 224 0 
-305 412 0 
-304 -303 411 0 
-304 -282 0 
-303 -281 0 
-302 -222 0 
-301 -279 -142 0 
-300 -278 -141 0 
-299 -276 -135 0 
-298 -275 -134 0 
-297 -274 -133 0 
-296 -273 -132 0 
-295 -272 -125 0 
-294 -271 -124 0 
-293 -268 -140 0 
-292 -267 -139 0 
-291 -266 -138 0 
-290 -265 -137 0 
-289 -263 -155 0 
-288 -253 -131 0 
-287 -252 -130 0 
-286 -251 -129 0 
-285 -250 -128 0 
-284 -248 -154 0 
-283 173 230 0 
-282 119 0 
-282 221 0 
-281 145 0 
-281 220 0 
-280 -217 0 
-279 -141 0 
-278 -142 0 
-277 -215 -214 0 
-276 -134 0 
-275 -135 0 
-274 -132 0 
-273 -133 0 
-272 -124 0 
-271 -125 0 
-270 -27 398 0 
-270 -26 397 0 
-270 -23 0 
-270 -22 399 0 
-270 -21 396 0 
-269 -25 395 0 
-269 -24 393 0 
-269 -23 0 
-269 -20 394 0 
-269 -19 392 0 
-268 -139 0 
-267 -140 0 
-266 -137 0 
-265 -138 0 
-264 -185 -136 0 
-263 -136 0 
-262 -18 388 0 
-262 -17 386 0 
-262 -16 385 0 
-262 -15 384 0 
-262 -12 0 
-262 -6 387 0 
-261 -14 382 0 
-261 -13 380 0 
-261 -12 0 
-261 -5 383 0 
-261 -4 381 0 
-260 91 0 
-260 143 0 
-260 144 0 
-260 430 0 
-259 92 0 
-259 143 0 
-259 144 0 
-259 429 0 
-258 93 0 
-258 143 0 
-258 144 0 
-258 428 0 
-257 85 0 
-257 143 0 
-257 144 0 
-257 427 0 
-256 94 0 
-256 143 0 
-256 144 0 
-256 431 0 
-255 -254 -114 365 0 
-255 -254 -113 371 0 
-255 -254 -112 374 0 
-255 -254 -111 377 0 
-255 -254 -105 368 0 
-255 -144 0 
-255 -143 -84 366 0 
-255 -143 -83 372 0 
-255 -143 -82 375 0 
-255 -143 -81 378 0 
-255 -143 -75 369 0 
-254 -144 -104 367 0 
-254 -144 -103 373 0 
-254 -144 -102 376 0 
-254 -144 -101 379 0 
-254 -144 -95 370 0 
-254 -143 0 
-253 -130 0 
-252 -131 0 
-251 -128 0 
-250 -129 0 
-249 -184 -127 0 
-248 -127 0 
-247 -246 -245 436 0 
-247 -213 -212 0 
-246 -211 -210 0 
-245 -209 -208 0 
-244 143 0 
-244 144 0 
-244 426 0 
-243 87 0 
-243 143 0 
-243 144 0 
-243 425 0 
-242 88 0 
-242 143 0 
-242 144 0 
-242 424 0 
-241 89 0 
-241 143 0 
-241 144 0 
-241 423 0 
-240 90 0 
-240 143 0 
-240 144 0 
-240 422 0 
-239 -238 -110 335 0 
-239 -238 -109 338 0 
-239 -238 -108 341 0 
-239 -238 -107 344 0 
-239 -238 347 0 
-239 -144 0 
-239 -143 -80 336 0 
-239 -143 -79 339 0 
-239 -143 -78 342 0 
-239 -143 -77 345 0 
-239 -143 348 0 
-238 -144 -100 337 0 
-238 -144 -99 340 0 
-238 -144 -98 343 0 
-238 -144 -97 346 0 
-238 -144 349 0 
-238 -143 0 
-237 54 0 
-237 117 0 
-237 120 0 
-237 421 0 
-236 55 0 
-236 117 0 
-236 120 0 
-236 420 0 
-235 56 0 
-235 117 0 
-235 120 0 
-235 419 0 
-234 57 0 
-234 117 0 
-234 120 0 
-234 418 0 
-233 58 0 
-233 117 0 
-233 120 0 
-233 417 0 
-232 -231 -69 320 0 
-232 -231 -68 323 0 
-232 -231 -67 326 0 
-232 -231 -66 329 0 
-232 -231 -65 332 0 
-232 -120 0 
-232 -117 -37 321 0 
-232 -117 -36 324 0 
-232 -117 -35 327 0 
-232 -117 -34 330 0 
-232 -117 -33 333 0 
-231 -120 -47 322 0 
-231 -120 -46 325 0 
-231 -120 -45 331 0 
-231 -120 -44 334 0 
-231 -120 328 0 
-231 -117 0 
-230 9 0 
-230 172 0 
-230 283 0 
-229 59 0 
-229 117 0 
-229 120 0 
-229 416 0 
-228 60 0 
-228 117 0 
-228 120 0 
-228 415 0 
-227 61 0 
-227 117 0 
-227 120 0 
-227 414 0 
-226 52 0 
-226 117 0 
-226 120 0 
-226 413 0 
-225 62 0 
-225 117 0 
-225 120 0 
-225 412 0 
-224 -223 -73 305 0 
-224 -223 -72 311 0 
-224 -223 -71 314 0 
-224 -223 -70 317 0 
-224 -223 -63 308 0 
-224 -120 0 
-224 -117 -41 306 0 
-224 -117 -40 312 0 
-224 -117 -39 315 0 
-224 -117 -38 318 0 
-224 -117 -31 309 0 
-223 -120 -51 307 0 
-223 -120 -50 313 0 
-223 -120 -49 316 0 
-223 -120 -48 319 0 
-223 -120 -42 310 0 
-223 -117 0 
-222 174 0 
-222 175 0 
-221 -175 0 
-221 -119 282 0 
-220 -174 0 
-220 -145 281 0 
-219 -186 -119 0 
-218 -186 0 
-217 145 0 
-217 186 0 
-216 74 0 
-216 115 0 
-215 -204 -152 0 
-214 -203 -153 0 
-213 -183 -150 0 
-212 -182 -151 0 
-211 -181 -148 0 
-210 -180 -149 0 
-209 -179 -146 0 
-208 -178 -147 0 
-207 -170 0 
-206 -169 0 
-205 -159 0 
-204 -153 0 
-203 -152 0 
-202 -142 0 
-201 -141 0 
-200 -140 0 
-199 -139 0 
-198 -138 0 
-197 -137 0 
-196 -136 0 
-195 -135 0 
-194 -134 0 
-193 -133 0 
-192 -132 0 
-191 -131 0 
-190 -130 0 
-189 -129 0 
-188 -128 0 
-187 -127 0 
-186 -145 217 0 
-186 7 0 
-186 121 0 
-185 -155 0 
-184 -154 0 
-183 -151 0 
-182 -150 0 
-181 -149 0 
-180 -148 0 
-179 -147 0 
-178 -146 0 
-177 -125 0 
-176 -124 0 
-175 -174 222 0 
-175 43 0 
-175 53 0 
-175 86 0 
-175 96 0 
-174 32 0 
-174 64 0 
-174 76 0 
-174 106 0 
-173 9 0 
-173 123 0 
-173 283 0 
-172 -123 0 
-172 -9 230 0 
-171 -122 0 
-171 490 0 
-170 29 0 
-169 2 0 
-169 11 0 
-169 121 0 
-168 -86 0 
-167 -43 0 
-166 -96 0 
-165 -53 0 
-164 -76 0 
-163 -64 0 
-162 -106 0 
-161 -32 0 
-160 -156 0 
-159 137 0 
-159 138 0 
-159 139 0 
-159 140 0 
-158 -126 0 
-157 -118 0 
-156 1 0 
-156 3 0 
-144 -143 -94 256 0 
-144 -143 -93 258 0 
-144 -143 -92 259 0 
-144 -143 -91 260 0 
-144 -143 -90 240 0 
-144 -143 -89 241 0 
-144 -143 -88 242 0 
-144 -143 -87 243 0 
-144 -143 -85 257 0 
-144 -143 244 0 
-140 -139 -138 -137 159 0 
-123 -9 173 0 
-121 -11 -2 169 0 
-121 -7 186 0 
-120 -117 -62 225 0 
-120 -117 -61 227 0 
-120 -117 -60 228 0 
-120 -117 -59 229 0 
-120 -117 -58 233 0 
-120 -117 -57 234 0 
-120 -117 -56 235 0 
-120 -117 -55 236 0 
-120 -117 -54 237 0 
-120 -117 -52 226 0 
-115 -74 216 0 
-106 -76 -64 -32 174 0 
-96 -86 -53 -43 175 0 
-29 170 0 
-3 -1 156 0 
12 261 0 
12 262 0 
23 269 0 
23 270 0 
32 161 0 
43 167 0 
53 165 0 
64 163 0 
76 164 0 
86 168 0 
96 166 0 
106 162 0 
117 223 0 
117 231 0 
118 157 0 
119 219 0 
120 224 0 
120 232 0 
122 171 0 
123 172 0 
124 176 0 
124 272 0 
124 294 0 
125 177 0 
125 271 0 
125 295 0 
126 158 0 
127 187 0 
127 248 0 
127 249 0 
128 188 0 
128 251 0 
128 285 0 
129 189 0 
129 250 0 
129 286 0 
130 190 0 
130 253 0 
130 287 0 
131 191 0 
131 252 0 
131 288 0 
132 192 0 
132 274 0 
132 296 0 
133 193 0 
133 273 0 
133 297 0 
134 194 0 
134 276 0 
134 298 0 
135 195 0 
135 275 0 
135 299 0 
136 196 0 
136 263 0 
136 264 0 
137 197 0 
137 266 0 
137 290 0 
138 198 0 
138 265 0 
138 291 0 
139 199 0 
139 268 0 
139 292 0 
140 200 0 
140 267 0 
140 293 0 
141 201 0 
141 279 0 
141 300 0 
142 202 0 
142 278 0 
142 301 0 
143 238 0 
143 254 0 
144 239 0 
144 255 0 
146 178 0 
146 209 0 
147 179 0 
147 208 0 
148 180 0 
148 211 0 
149 181 0 
149 210 0 
150 182 0 
150 213 0 
151 183 0 
151 212 0 
152 203 0 
152 215 0 
153 204 0 
153 214 0 
154 184 0 
154 284 0 
155 185 0 
155 289 0 
156 160 0 
157 524 0 
159 205 0 
169 206 0 
170 207 0 
174 220 0 
175 221 0 
176 355 0 
176 625 0 
177 356 0 
177 626 0 
178 208 0 
179 209 0 
180 210 0 
181 211 0 
182 212 0 
183 213 0 
184 249 0 
185 264 0 
186 218 0 
186 219 0 
187 357 0 
187 627 0 
188 358 0 
188 628 0 
189 359 0 
189 629 0 
190 360 0 
190 630 0 
191 361 0 
191 631 0 
192 362 0 
192 632 0 
193 363 0 
193 633 0 
194 364 0 
194 634 0 
195 400 0 
195 638 0 
196 401 0 
196 639 0 
197 402 0 
197 640 0 
198 403 0 
198 641 0 
199 404 0 
199 642 0 
200 405 0 
200 643 0 
201 463 0 
202 464 0 
203 214 0 
204 215 0 
208 245 0 
209 245 0 
210 246 0 
211 246 0 
212 247 0 
213 247 0 
214 277 0 
215 277 0 
217 280 0 
222 302 0 
245 350 0 
246 351 0 
247 434 0 
247 435 0 
248 284 0 
249 352 0 
250 285 0 
251 286 0 
252 287 0 
253 288 0 
263 289 0 
264 389 0 
265 290 0 
266 291 0 
267 292 0 
268 293 0 
271 294 0 
272 295 0 
273 296 0 
274 297 0 
275 298 0 
276 299 0 
277 407 0 
277 487 0 
278 300 0 
279 301 0 
281 303 0 
282 304 0 
284 352 0 
285 353 0 
286 353 0 
287 354 0 
288 354 0 
289 389 0 
290 390 0 
291 390 0 
292 391 0 
293 391 0 
294 406 0 
295 406 0 
296 409 0 
297 409 0 
298 408 0 
299 408 0 
300 410 0 
301 410 0 
352 432 0 
353 433 0 
354 493 0 
354 494 0 
355 565 0 
356 567 0 
357 569 0 
358 571 0 
359 573 0 
360 575 0 
361 577 0 
362 579 0 
363 581 0 
364 583 0 
389 438 0 
390 439 0 
391 500 0 
391 501 0 
400 592 0 
401 594 0 
402 596 0 
403 598 0 
404 600 0 
405 602 0 
406 441 0 
406 442 0 
407 442 0 
408 443 0 
408 489 0 
409 444 0 
409 488 0 
410 440 0 
410 750 0 
412 460 0 
412 617 0 
412 919 0 
413 461 0 
413 550 0 
413 676 0 
414 456 0 
414 462 0 
415 528 0 
416 453 0 
416 529 0 
417 452 0 
417 548 0 
418 451 0 
418 530 0 
419 531 0 
420 532 0 
421 533 0 
422 450 0 
422 544 0 
422 589 0 
423 448 0 
423 466 0 
423 553 0 
423 604 0 
424 449 0 
424 552 0 
424 605 0 
425 463 0 
425 555 0 
425 606 0 
426 464 0 
426 554 0 
426 607 0 
427 540 0 
427 541 0 
428 543 0 
428 586 0 
429 542 0 
429 587 0 
430 545 0 
430 588 0 
431 478 0 
431 585 0 
436 467 495 0 
437 468 496 0 
440 726 0 
441 487 0 
442 504 0 
443 488 0 
444 489 0 
454 491 0 
455 492 0 
456 524 0 
456 549 0 
460 611 0 
460 615 0 
460 652 0 
460 654 0 
461 610 0 
461 614 0 
461 653 0 
461 655 0 
462 612 0 
462 616 0 
462 618 0 
462 623 0 
462 741 0 
462 743 0 
462 1060 0 
462 1067 0 
465 523 0 
478 541 0 
487 504 0 
488 505 0 
489 505 0 
495 551 0 
496 551 0 
497 538 561 0 
498 539 562 0 
502 546 590 0 
503 547 591 0 
504 563 0 
504 657 0 
505 564 0 
505 745 0 
506 565 0 
506 566 0 
507 567 0 
507 568 0 
508 569 0 
508 570 0 
509 571 0 
509 572 0 
510 573 0 
510 574 0 
511 575 0 
511 576 0 
512 577 0 
512 578 0 
513 579 0 
513 580 0 
514 581 0 
514 582 0 
515 583 0 
515 584 0 
516 592 0 
516 593 0 
517 594 0 
517 595 0 
518 596 0 
518 597 0 
519 598 0 
519 599 0 
520 600 0 
520 601 0 
521 602 0 
521 603 0 
522 609 0 
522 619 0 
522 621 0 
522 699 0 
522 701 0 
524 646 0 
524 688 0 
528 684 0 
528 685 0 
528 690 0 
528 691 0 
528 692 0 
528 703 0 
528 1059 0 
528 1066 0 
529 686 0 
529 687 0 
529 700 0 
529 704 0 
529 1065 0 
529 1072 0 
530 728 0 
530 732 0 
530 751 0 
530 755 0 
531 727 0 
531 731 0 
531 752 0 
531 756 0 
532 730 0 
532 734 0 
532 753 0 
532 757 0 
533 729 0 
533 733 0 
533 754 0 
533 758 0 
540 585 0 
541 635 0 
542 586 0 
543 587 0 
544 588 0 
545 589 0 
548 613 0 
548 742 0 
549 644 0 
549 645 0 
550 645 0 
551 622 0 
551 624 0 
552 604 0 
553 605 0 
554 606 0 
555 607 0 
559 658 0 
560 659 0 
561 647 0 
562 647 0 
563 622 0 
564 706 0 
565 660 0 
566 625 0 
567 661 0 
568 626 0 
569 662 0 
570 627 0 
571 663 0 
572 628 0 
573 664 0 
574 629 0 
575 665 0 
576 630 0 
577 666 0 
578 631 0 
579 667 0 
580 632 0 
581 668 0 
582 633 0 
583 669 0 
584 634 0 
585 635 0 
586 636 0 
587 636 0 
588 637 0 
589 637 0 
590 650 0 
591 650 0 
592 670 0 
593 638 0 
594 671 0 
595 639 0 
596 672 0 
597 640 0 
598 673 0 
599 641 0 
600 674 0 
601 642 0 
602 675 0 
603 643 0 
604 649 0 
605 649 0 
606 648 0 
607 648 0 
609 835 0 
609 839 0 
609 846 0 
609 855 0 
610 652 0 
611 653 0 
612 685 0 
613 686 0 
614 654 0 
615 655 0 
616 691 0 
617 899 0 
618 1034 0 
622 702 0 
623 1047 0 
624 657 0 
625 660 0 
626 661 0 
627 662 0 
628 663 0 
629 664 0 
630 665 0 
631 666 0 
632 667 0 
633 668 0 
634 669 0 
635 723 0 
636 724 0 
637 780 0 
637 781 0 
638 670 0 
639 671 0 
640 672 0 
641 673 0 
642 674 0 
643 675 0 
644 676 0 
645 735 0 
646 736 0 
646 812 0 
647 705 0 
647 706 0 
648 737 0 
648 760 0 
649 738 0 
649 759 0 
650 725 0 
650 726 0 
652 683 0 
653 683 0 
654 689 0 
655 689 0 
657 702 0 
660 716 0 
661 715 0 
662 714 0 
663 713 0 
664 712 0 
665 711 0 
666 710 0 
667 709 0 
668 708 0 
669 707 0 
670 722 0 
671 721 0 
672 720 0 
673 719 0 
674 718 0 
675 717 0 
676 735 0 
683 767 0 
684 741 0 
685 768 0 
686 769 0 
687 742 0 
689 770 0 
690 743 0 
691 771 0 
692 1033 0 
700 1044 0 
702 744 0 
703 1046 0 
704 1056 0 
705 745 0 
706 777 0 
725 750 0 
726 784 0 
727 751 0 
728 752 0 
729 753 0 
730 754 0 
731 755 0 
732 756 0 
733 757 0 
734 758 0 
735 787 0 
735 788 0 
736 788 0 
737 759 0 
738 760 0 
741 768 0 
742 769 0 
743 771 0 
745 777 0 
750 784 0 
751 786 0 
752 786 0 
753 785 0 
754 785 0 
755 790 0 
756 790 0 
757 789 0 
758 789 0 
759 791 0 
760 791 0 
761 792 0 
762 792 0 
768 823 0 
769 891 0 
769 892 0 
771 893 0 
771 894 0 
776 833 0 
777 814 0 
782 810 843 0 
783 811 844 0 
784 813 0 
785 864 0 
785 887 0 
786 865 0 
786 886 0 
787 812 0 
788 868 0 
789 866 0 
789 889 0 
790 867 0 
790 888 0 
791 845 0 
791 954 0 
793 815 0 
794 816 0 
795 817 0 
796 818 0 
799 821 0 
800 822 0 
803 827 0 
804 828 0 
805 829 0 
806 830 0 
807 831 0 
808 832 0 
809 869 0 
812 868 0 
815 958 0 
815 1015 0 
816 957 0 
816 1014 0 
817 956 0 
817 1013 0 
818 955 0 
818 1012 0 
819 870 0 
820 871 0 
821 960 0 
821 1017 0 
822 959 0 
822 1016 0 
825 872 0 
826 873 0 
827 967 0 
827 1025 0 
828 966 0 
828 1024 0 
829 965 0 
829 1023 0 
830 964 0 
830 1022 0 
831 963 0 
831 1021 0 
832 962 0 
832 1020 0 
843 890 0 
844 890 0 
845 921 0 
864 886 0 
865 887 0 
866 888 0 
867 889 0 
868 899 0 
868 900 0 
870 989 0 
870 1079 0 
871 988 0 
871 1078 0 
872 1006 0 
872 1090 0 
873 1005 0 
873 1089 0 
874 986 0 
874 987 0 
875 984 0 
875 985 0 
876 982 0 
876 983 0 
877 980 0 
877 981 0 
878 978 0 
878 979 0 
879 976 0 
879 977 0 
880 1003 0 
880 1004 0 
881 1001 0 
881 1002 0 
882 999 0 
882 1000 0 
883 997 0 
883 998 0 
884 995 0 
884 996 0 
885 993 0 
885 994 0 
886 913 0 
887 913 0 
888 914 0 
889 914 0 
890 921 0 
890 941 0 
895 915 947 0 
896 916 948 0 
897 917 949 0 
898 918 950 0 
899 946 0 
900 919 0 
913 951 0 
913 1057 0 
914 952 0 
914 1058 0 
919 946 0 
921 975 0 
935 1034 0 
935 1035 0 
936 1032 0 
936 1033 0 
937 1043 0 
937 1044 0 
938 1047 0 
938 1048 0 
939 1045 0 
939 1046 0 
940 1055 0 
940 1056 0 
941 954 0 
947 1008 0 
948 1008 0 
949 1009 0 
950 1009 0 
951 1029 0 
952 1031 0 
954 975 0 
955 977 0 
956 979 0 
957 981 0 
958 983 0 
959 985 0 
960 987 0 
962 994 0 
963 996 0 
964 998 0 
965 1000 0 
966 1002 0 
967 1004 0 
968 1063 0 
968 1064 0 
969 1061 0 
969 1062 0 
970 1070 0 
970 1071 0 
971 1068 0 
971 1069 0 
975 1011 0 
976 1012 0 
977 1037 0 
978 1013 0 
979 1038 0 
980 1014 0 
981 1039 0 
982 1015 0 
983 1040 0 
984 1016 0 
985 1041 0 
986 1017 0 
987 1042 0 
988 1062 0 
989 1064 0 
993 1020 0 
994 1049 0 
995 1021 0 
996 1050 0 
997 1022 0 
998 1051 0 
999 1023 0 
1000 1052 0 
1001 1024 0 
1002 1053 0 
1003 1025 0 
1004 1054 0 
1005 1069 0 
1006 1071 0 
1008 1028 0 
1008 1029 0 
1009 1030 0 
1009 1031 0 
1012 1037 0 
1013 1038 0 
1014 1039 0 
1015 1040 0 
1016 1041 0 
1017 1042 0 
1020 1049 0 
1021 1050 0 
1022 1051 0 
1023 1052 0 
1024 1053 0 
1025 1054 0 
1028 1057 0 
1029 1073 0 
1030 1058 0 
1031 1074 0 
1032 1059 0 
1033 1075 0 
1034 1076 0 
1035 1060 0 
1036 1077 0 
1043 1065 0 
1044 1080 0 
1045 1066 0 
1046 1087 0 
1047 1088 0 
1048 1067 0 
1055 1072 0 
1056 1091 0 
1057 1073 0 
1058 1074 0 
1059 1075 0 
1060 1076 0 
1061 1078 0 
1062 1100 0 
1063 1079 0 
1064 1101 0 
1065 1080 0 
1066 1087 0 
1067 1088 0 
1068 1089 0 
1069 1104 0 
1070 1090 0 
1071 1105 0 
1072 1091 0 
1073 1098 0 
1078 1100 0 
1079 1101 0 
1081 1102 0 
1089 1104 0 
1090 1105 0 
1092 1106 0 
1102 1126 0 
1103 1115 0 
1106 1130 0 
1107 1120 0 
1111 1127 0 
1115 1126 0 
1120 1130 0 
1131 1134 0 
1133 1136 0 
1140 1142 0 
1141 1142 0 
1145 1146 0 
1148 1149 0 
1151 1152 0 
